generated by phonopy                    
   1.00000000000000     
     6.8680358478530774    0.0000000000000000    0.0000000000000000
    -3.4340179239265387    5.9478935183429620   -0.0000000000000000
     0.0000000000000000    0.0000000000000000    9.7754308635871414
   C 
    36
Direct
  0.2069895893864441  0.2069895893864441 -0.0000000000000000 C p z
  0.7930104106135559  0.7930104106135559 -0.0000000000000000
  0.7930104106135559 -0.0000000000000000 -0.0000000000000000
  0.2069895893864441 -0.0000000000000000 -0.0000000000000000
 -0.0000000000000000  0.7930104106135559  0.0000000000000000
 -0.0000000000000000  0.2069895893864441  0.0000000000000000
  0.4111035764614345  0.4111035764614345  0.0000000000000000
  0.5888964235385654  0.5888964235385654  0.0000000000000000
  0.5888964235385654 -0.0000000000000000 -0.0000000000000000
  0.4111035764614345 -0.0000000000000000 -0.0000000000000000
  0.0000000000000000  0.5888964235385654  0.0000000000000000
 -0.0000000000000000  0.4111035764614345  0.0000000000000000
  0.8736566104209288  0.5403225814209293  0.3333333333300033
  0.4596774485790731  0.1263434345790714  0.3333333333300033
  0.4596774485790731  0.3333329860000021  0.3333333333300033
  0.8736566104209288  0.3333329860000021  0.3333333333300033
  0.6666669849999991  0.1263434345790714  0.3333333333300033
  0.6666669849999991  0.5403225814209293  0.3333333333300033
  0.0777705681070617  0.7444365841070624  0.3333333333300033
  0.2555634458929402  0.9222294468929360  0.3333333333300033
  0.2555634458929402  0.3333329860000021  0.3333333333300033
  0.0777705681070617  0.3333329860000021  0.3333333333300033
  0.6666669849999991  0.9222294468929360  0.3333333333300033
  0.6666669849999991  0.7444365841070624  0.3333333333300033
  0.5403225814209293  0.8736566104209288  0.6666666667000030
  0.1263434345790714  0.4596774485790731  0.6666666667000030
  0.1263434345790714  0.6666669849999991  0.6666666667000030
  0.5403225814209293  0.6666669849999991  0.6666666667000030
  0.3333329860000021  0.4596774485790731  0.6666666667000030
  0.3333329860000021  0.8736566104209288  0.6666666667000030
  0.7444365841070624  0.0777705681070617  0.6666666667000030
  0.9222294468929360  0.2555634458929402  0.6666666667000030
  0.9222294468929360  0.6666669849999991  0.6666666667000030
  0.7444365841070624  0.6666669849999991  0.6666666667000030
  0.3333329860000021  0.2555634458929402  0.6666666667000030
  0.3333329860000021  0.0777705681070617  0.6666666667000030
 
  0.00000000E+00  0.00000000E+00  0.00000000E+00
  0.00000000E+00  0.00000000E+00  0.00000000E+00
  0.00000000E+00  0.00000000E+00  0.00000000E+00
  0.00000000E+00  0.00000000E+00  0.00000000E+00
  0.00000000E+00  0.00000000E+00  0.00000000E+00
  0.00000000E+00  0.00000000E+00  0.00000000E+00
  0.00000000E+00  0.00000000E+00  0.00000000E+00
  0.00000000E+00  0.00000000E+00  0.00000000E+00
  0.00000000E+00  0.00000000E+00  0.00000000E+00
  0.00000000E+00  0.00000000E+00  0.00000000E+00
  0.00000000E+00  0.00000000E+00  0.00000000E+00
  0.00000000E+00  0.00000000E+00  0.00000000E+00
  0.00000000E+00  0.00000000E+00  0.00000000E+00
  0.00000000E+00  0.00000000E+00  0.00000000E+00
  0.00000000E+00  0.00000000E+00  0.00000000E+00
  0.00000000E+00  0.00000000E+00  0.00000000E+00
  0.00000000E+00  0.00000000E+00  0.00000000E+00
  0.00000000E+00  0.00000000E+00  0.00000000E+00
  0.00000000E+00  0.00000000E+00  0.00000000E+00
  0.00000000E+00  0.00000000E+00  0.00000000E+00
  0.00000000E+00  0.00000000E+00  0.00000000E+00
  0.00000000E+00  0.00000000E+00  0.00000000E+00
  0.00000000E+00  0.00000000E+00  0.00000000E+00
  0.00000000E+00  0.00000000E+00  0.00000000E+00
  0.00000000E+00  0.00000000E+00  0.00000000E+00
  0.00000000E+00  0.00000000E+00  0.00000000E+00
  0.00000000E+00  0.00000000E+00  0.00000000E+00
  0.00000000E+00  0.00000000E+00  0.00000000E+00
  0.00000000E+00  0.00000000E+00  0.00000000E+00
  0.00000000E+00  0.00000000E+00  0.00000000E+00
  0.00000000E+00  0.00000000E+00  0.00000000E+00
  0.00000000E+00  0.00000000E+00  0.00000000E+00
  0.00000000E+00  0.00000000E+00  0.00000000E+00
  0.00000000E+00  0.00000000E+00  0.00000000E+00
  0.00000000E+00  0.00000000E+00  0.00000000E+00
  0.00000000E+00  0.00000000E+00  0.00000000E+00
