Gd1 P3 Zn3
1.0
        4.0107002258         0.0000000000         0.0000000000
       -2.0053501129         3.4733682825         0.0000000000
        0.0000000000         0.0000000000        19.8808002472
   Gd   Zn    P
    2    6    6
Direct
     0.000000000         0.000000000         0.500000000
     0.000000000         0.000000000         0.000000000
     0.666666687         0.333333343         0.629949987
     0.333333313         0.666666627         0.370050013
     0.333333313         0.666666627         0.129949987
     0.666666687         0.333333343         0.870050013
     0.333333373         0.666666687         0.750000000
     0.666666627         0.333333313         0.250000000
     0.666666687         0.333333343         0.415499985
     0.333333313         0.666666627         0.584500015
     0.333333313         0.666666627         0.915499985
     0.666666687         0.333333343         0.084500015
     0.666666687         0.333333343         0.750000000
     0.333333313         0.666666627         0.250000000
