K-Path Generated by VASPKIT.
   180
Line-Mode
Reciprocal
   0.5000000000   0.0000000000   0.0000000000     Mm
   0.3333333333   0.3333333333   0.0000000000     Km

   0.3333333333   0.3333333333   0.0000000000     Km
   0.0000000000   0.0000000000   0.0000000000     Γ

    0.0000000000   0.0000000000   0.0000000000     Γ  
   0.6666666667   -0.3333333333   0.0000000000     Km'

   0.6666666667   -0.3333333333   0.0000000000     Km'
   0.5000000000   0.0000000000   0.0000000000     Mm