K-Path Generated by VASPKIT.
   220
Line-Mode
Reciprocal
   0.0000000000   0.0000000000   0.0000000000     Γ
   0.3333333333  0.3333333333   0.0000000000     K


   