graphene
1.0
   1.0000         0         0
   -0.5000    0.8660         0
         0         0    10
    C
    4
Direct
     0. 0         0.0000000 C p z
     0. 0         0.0000000 C p z
     0. 0         0.0000000 C p z
     0. 0         0.0000000 C p z