PARCHG Gen by TBkit. 22-Sep-2025
1
  1.000000  0.000000  0.000000
  -0.500000  0.866000  0.000000
  0.000000  0.000000  10.000000
C 
  4 
Direct
  0.000000  0.000000  0.000000  
  0.000000  0.000000  0.000000  
  0.000000  0.000000  0.000000  
  0.000000  0.000000  0.000000  
  