POSCAR
1.0
        6.3554000854         0.0000000000         0.0000000000
       -3.1777000427         5.5039379252         0.0000000000
        0.0000000000         0.0000000000        29.9915008545
   Pt   Cl
    4   12
Direct
     0.333333343         0.666666687         0.617969990
     0.666666687         0.333333343         0.617969990
     0.333333343         0.666666687         0.382030010
     0.666666687         0.333333343         0.382030010
     0.000000000         0.644460022         0.337049991
     0.355539978         0.355539978         0.337049991
     0.644460022         0.000000000         0.337049991
     0.000000000         0.355419993         0.426990002
     0.644580007         0.644580007         0.426990002
     0.355419993         0.000000000         0.426990002
     0.000000000         0.644460022         0.662950039
     0.355539978         0.355539978         0.662950039
     0.644460022         0.000000000         0.662950039
     0.000000000         0.355419993         0.573009968
     0.644580007         0.644580007         0.573009968
     0.355419993         0.000000000         0.573009968
