K-Path Generated by VASPKIT.
   120
Line-Mode
Reciprocal
   0.1000000000   0.0000000000   0.0000000000    X
   0.0000000000   0.0000000000   0.0000000000    GAMMA          

   0.0000000000   0.0000000000   0.0000000000    GAMMA          
  -0.1000000000   0.0000000000   0.0000000000    X             
 
