Te
1.0
        4.4580001831         0.0000000000         0.0000000000
       -2.2290000916         3.8607414086         0.0000000000
        0.0000000000         0.0000000000         5.9250001907
   Te
    3
Direct
     0.745000000         0.000000000         0.333333343
     0.000000000         0.745000000         0.666666677
     0.255000000         0.255000000         0.000000000
