K-Path Generated by VASPKIT.
   20
Line-Mode
Reciprocal
   0.0000000000   0.0000000000   0.1500000000     D
   0.5000000000   0.0000000000   0.1500000000     U

   0.5000000000   0.0000000000   0.1500000000     U
   0.3333333333   0.3333333333   0.1500000000     P

   0.3333333333   0.3333333333   0.1500000000     P
   0.0000000000   0.0000000000   0.1500000000     D
