Mn2 Te2                                 
   1.00000000000000     
     4.1734900474999996    0.0000000000000000    0.0000000000000000
    -2.0867450236999998    3.6143484035000002    0.0000000000000000
     0.0000000000000000    0.0000000000000000    6.7534513474000004
   Mn   Te
     2     2
Direct
  0.0000000000000000  0.0000000000000000  0.0000000000000000
  0.0000000000000000  0.0000000000000000  0.5000000000000000
  0.3333333429999996  0.6666666870000029  0.2500000000000000
  0.6666666269999979  0.3333333129999971  0.7500000000000000
 
  0.00000000E+00  0.00000000E+00  0.00000000E+00
  0.00000000E+00  0.00000000E+00  0.00000000E+00
  0.00000000E+00  0.00000000E+00  0.00000000E+00
  0.00000000E+00  0.00000000E+00  0.00000000E+00
