Ca1 Co2 N2                              
   1.00000000000000     
     3.5499999522999999    0.0000000000000000    0.0000000000000000
     0.0000000000000000    3.5499999522999999    0.0000000000000000
     0.0000000000000000    0.0000000000000000   23.9041899109000013
   Ca   Co   N 
     1     2     2
Direct
  0.2500000000000000  0.2500000000000000  0.0000000000000000
  0.7500000000000000  0.7500000000000000  0.0819938846695634
  0.7500000000000000  0.7500000000000000  0.9180059912559543
  0.2500000000000000  0.7500000000000000  0.9338098934329856
  0.7500000000000000  0.2500000000000000  0.0661899499459303
 
  0.00000000E+00  0.00000000E+00  0.00000000E+00
  0.00000000E+00  0.00000000E+00  0.00000000E+00
  0.00000000E+00  0.00000000E+00  0.00000000E+00
  0.00000000E+00  0.00000000E+00  0.00000000E+00
  0.00000000E+00  0.00000000E+00  0.00000000E+00
