generated by phonopy
0.5774
        3.0000000000         0.0000000000         0.0000000000
        0.0000000000         3.0000000000         0.0000000000
        0.0000000000         0.0000000000         3.0000000000
    C   
    9    
Direct
     0.833333333         0.500000000         0.000000000 C p px
     0.833333333         0.500000000         0.000000000 C p py 
     0.833333333         0.500000000         0.000000000 C p pz
     0.333333333         0.788666667         0.333300000 C p px
     0.333333333         0.788666667         0.333300000 C p py
     0.333333333         0.788666667         0.333300000 C p pz
     0.333333333         0.211333333         0.666700000 C p px
     0.333333333         0.211333333         0.666700000 C p py
     0.333333333         0.211333333         0.666700000 C p pz