Diamond
   1.0
     0.0000000000000000    1.7868549235128819    1.7868549235128819
     1.7868549235128819    0.0000000000000000    1.7868549235128819
     1.7868549235128819    1.7868549235128819    0.0000000000000000
C
   2
Direct
  0.2500000000000000  0.2500000000000000  0.2500000000000000 C sp
  0.0000000000000000  0.0000000000000000  0.0000000000000000 C sp
