POSCAR Gen by MATLAB
1
  4.172622  0.000000  0.000000
  0.000000  4.172622  0.000000
  0.000000  0.000000  4.172622
Na 
  4 
Direct
  0.000000  0.000000  0.000000  
  0.500000  0.500000  0.000000  
  0.000000  0.500000  0.500000  
  0.500000  0.000000  0.500000  
  