K-Path 
   60
Line-Mode
Reciprocal
   0.0000000000   0.0000000000   0.0000000000     G        
   0.5000000000   0.0000000000   0.0000000000     X              
 
   0.5000000000   0.0000000000   0.0000000000     X              
   0.5000000000   0.5000000000   0.0000000000     S  

   0.5000000000   0.5000000000   0.0000000000     S   
   0.0000000000   0.0000000000   0.0000000000     G  
           
   0.0000000000   0.0000000000   0.0000000000     G         
   0.0000000000   0.5000000000   0.0000000000     S 
