K-Path Generated by VASPKIT.
   220
Line-Mode
Reciprocal
   0.0000000000   0.0000000000   0.0000000000     Γ
   0.10999999998  0.10999999998   0.0000000000     C


   