POSCAR Gen by MATLAB
1
  -4.546000  0.000000  -0.000000
  2.273000  -3.936951  0.000000
  0.000000  0.000000  81.172003
Bi 
  72 
Direct
  0.233900  0.233900  0.039000  
  0.233900  0.233900  0.205600  
  0.233900  0.233900  0.372300  
  0.233900  0.233900  0.539000  
  0.233900  0.233900  0.705600  
  0.233900  0.233900  0.872300  
  0.233900  0.233900  0.039000  
  0.233900  0.233900  0.205600  
  0.233900  0.233900  0.372300  
  0.233900  0.233900  0.539000  
  0.233900  0.233900  0.705600  
  0.233900  0.233900  0.872300  
  0.233900  0.233900  0.039000  
  0.233900  0.233900  0.205600  
  0.233900  0.233900  0.372300  
  0.233900  0.233900  0.539000  
  0.233900  0.233900  0.705600  
  0.233900  0.233900  0.872300  
  0.766100  0.766100  0.127700  
  0.766100  0.766100  0.294400  
  0.766100  0.766100  0.461000  
  0.766100  0.766100  0.627700  
  0.766100  0.766100  0.794400  
  0.766100  0.766100  0.961000  
  0.766100  0.766100  0.127700  
  0.766100  0.766100  0.294400  
  0.766100  0.766100  0.461000  
  0.766100  0.766100  0.627700  
  0.766100  0.766100  0.794400  
  0.766100  0.766100  0.961000  
  0.766100  0.766100  0.127700  
  0.766100  0.766100  0.294400  
  0.766100  0.766100  0.461000  
  0.766100  0.766100  0.627700  
  0.766100  0.766100  0.794400  
  0.766100  0.766100  0.961000  
  0.233900  0.233900  0.039000  
  0.233900  0.233900  0.205600  
  0.233900  0.233900  0.372300  
  0.233900  0.233900  0.539000  
  0.233900  0.233900  0.705600  
  0.233900  0.233900  0.872300  
  0.233900  0.233900  0.039000  
  0.233900  0.233900  0.205600  
  0.233900  0.233900  0.372300  
  0.233900  0.233900  0.539000  
  0.233900  0.233900  0.705600  
  0.233900  0.233900  0.872300  
  0.233900  0.233900  0.039000  
  0.233900  0.233900  0.205600  
  0.233900  0.233900  0.372300  
  0.233900  0.233900  0.539000  
  0.233900  0.233900  0.705600  
  0.233900  0.233900  0.872300  
  0.766100  0.766100  0.127700  
  0.766100  0.766100  0.294400  
  0.766100  0.766100  0.461000  
  0.766100  0.766100  0.627700  
  0.766100  0.766100  0.794400  
  0.766100  0.766100  0.961000  
  0.766100  0.766100  0.127700  
  0.766100  0.766100  0.294400  
  0.766100  0.766100  0.461000  
  0.766100  0.766100  0.627700  
  0.766100  0.766100  0.794400  
  0.766100  0.766100  0.961000  
  0.766100  0.766100  0.127700  
  0.766100  0.766100  0.294400  
  0.766100  0.766100  0.461000  
  0.766100  0.766100  0.627700  
  0.766100  0.766100  0.794400  
  0.766100  0.766100  0.961000  
  