generated by phonopy
   1.0
     4.5460000038021846    0.0000000000000000    0.0000000000000000
    -2.2730000019010923    3.9369514888968462    0.0000000000000000
     0.0000000000000000    0.0000000000000000   11.8620004653999995
Bi
   6
Direct
  0.0000000000000000  0.0000000000000000  0.2338899870000002
  0.6666666666666666  0.3333333333333333  0.0994433463333331
  0.6666666666666666  0.3333333333333333  0.5672233203333334
  0.3333333333333333  0.6666666666666666  0.4327766796666664
  0.3333333333333333  0.6666666666666666  0.9005566536666668
  0.0000000000000000  0.0000000000000000  0.7661100129999998
