generated by phonopy
   1.0
     2.2730000019010923    1.3123171629656154    3.9540001551333330
    -2.2730000019010923    1.3123171629656154    3.9540001551333321
     0.0000000000000000   -2.6246343259312308    3.9540001551333321
Bi
   8
Direct
  0.2338899870000002  0.2338899870000002  0.2338899870000002 Bi s I
  0.2338899870000002  0.2338899870000002  0.2338899870000002 Bi p x
  0.2338899870000002  0.2338899870000002  0.2338899870000002 Bi p y
  0.2338899870000002  0.2338899870000002  0.2338899870000002 Bi p z
  0.7661100129999998  0.7661100129999997  0.7661100129999998 Bi s I
  0.7661100129999998  0.7661100129999997  0.7661100129999998 Bi p x
  0.7661100129999998  0.7661100129999997  0.7661100129999998 Bi p y
  0.7661100129999998  0.7661100129999997  0.7661100129999998 Bi p z
