K-Path Generated by VASPKIT.
   120
Line-Mode
Reciprocal
   -0.0637   0.0000000000   0.0000000000     X
   0.0000000000   0.0000000000   0.0000000000     GAMMA          

   0.0000000000   0.0000000000   0.0000000000     GAMMA          
   0.0000000000   0.0637   0.0000000000     Y              
 
